0 64 
1 67 
2 67 
3 66 
4 68 
5 67 
6 65 
7 64 
8 63 
9 61 
10 58 
11 58 
12 58 
13 55 
14 53 
15 51 
16 52 
17 52 
18 51 
19 47 
20 49 
21 50 
22 48 
23 46 
24 43 
25 43 
26 44 
27 44 
28 41 
29 43 
30 40 
31 38 
32 37 
33 34 
34 33 
35 31 
36 32 
37 29 
38 29 
39 31 
40 32 
41 33 
42 29 
43 27 
44 27 
45 25 
46 24 
47 23 
48 22 
49 20 
50 18 
51 16 
52 16 
53 16 
54 16 
55 15 
56 17 
57 15 
58 14 
59 13 
60 13 
61 14 
62 11 
63 11 
64 9 
65 8 
66 8 
67 7 
68 7 
69 6 
70 6 
71 6 
72 5 
73 4 
74 4 
75 3 
76 1 
77 0 
78 0 

